667385
1,36,7,210,183,20,117,22,26,144,145,211,156,5,44,64,30,220,13,176,223,17,47,225,48,111,134,19,227,125,46,214,14,201,110,120,165,194,97,8,15,137,60,16,189,185,138,3,208,159,23,69,226,177,51,98,42,160,113,73,209,218,206,136,181,188,124,173,131,148,182,61,25,123,85,167,79,95,57,76,29,84,193,195,119,114,86,70,126,122,152,191,10,198,200,65,154,164,174,197,143,11,139,58,213,45,212,104,230,204,172,168,93,59,221,52,80,132,149,115,2,82,158,77,222,41,128,106,141,24,66,216,100,53,92,18,56,54,175,105,202,99,190,219,121,180,103,187,12,146,88,109,90,186,171,150,170,142,228,4,21,217,153,129,33,224,38,203,6,68,9,91,96,166,101,184,161,116,89,107,196,179,192,37,34,205,75,215,78,28,151,50,108,94,35,87,55,62,102,130,81,40,169,27,112,155,133,229,162,135,83,157,74,43,31,199,178,163,127,147,207,39,67,49,118,71,140,32,63,72,1